instances/knapsack/discrete_knapsack_uncertainty/knapsack_120_3.lp
\ Model knapsack_120_3
\ LP format - for model browsing. Use MPS format to capture full model detail.
\ Signature: 0x89f048c0c90eaa9
Minimize
  - 13 x[0] - 14 x[1] - 99 x[2] - 19 x[3] - 37 x[4] - 92 x[5] - 45 x[6]
   - 7 x[7] - 22 x[8] - 86 x[9] - 22 x[10] - 38 x[11] - 42 x[12] - 93 x[13]
   - 10 x[14] - 55 x[15] - 73 x[16] - 89 x[17] - 34 x[18] - 65 x[19]
   - 97 x[20] - 34 x[21] - 67 x[22] - 67 x[23] - 68 x[24] - 34 x[25]
   - 23 x[26] - 67 x[27] - 13 x[28] - 72 x[29] - 20 x[30] - 83 x[31]
   - 23 x[32] - 30 x[33] - 11 x[34] - 12 x[35] - 64 x[36] - 42 x[37]
   - 34 x[38] - 95 x[39] - 79 x[40] - 57 x[41] - 69 x[42] - 54 x[43]
   - 82 x[44] - 70 x[45] - 100 x[46] - 72 x[47] - 40 x[48] - x[49]
   - 22 x[50] - 62 x[51] - 86 x[52] - 24 x[53] - 91 x[54] - 69 x[55]
   - 30 x[56] - 59 x[57] - 43 x[58] - 10 x[59] - 95 x[60] - 69 x[61]
   - 85 x[62] - 57 x[63] - 34 x[64] - 4 x[65] - 84 x[66] - 33 x[67]
   - 80 x[68] - 93 x[69] - 40 x[70] - 66 x[71] - 100 x[72] - 69 x[73]
   - 90 x[74] - 13 x[75] - 49 x[76] - 28 x[77] - 43 x[78] - 91 x[79]
   - 78 x[80] - 29 x[81] - 25 x[82] - 9 x[83] - 72 x[84] - 80 x[85]
   - 53 x[86] - 94 x[87] - 95 x[88] - 42 x[89] - 21 x[90] - 33 x[91]
   - 73 x[92] - 64 x[93] - 31 x[94] - 82 x[95] - 48 x[96] - 79 x[97]
   - 32 x[98] - 100 x[99] - 64 x[100] - 5 x[101] - 18 x[102] - 57 x[103]
   - 62 x[104] - 74 x[105] - 49 x[106] - 92 x[107] - 33 x[108] - 68 x[109]
   - 57 x[110] - 41 x[111] - 53 x[112] - 83 x[113] - 69 x[114] - 36 x[115]
   - 38 x[116] - 60 x[117] - 97 x[118] - 18 x[119]
Subject To
 primal_upper: 91 x[0] + 23 x[1] + 85 x[2] + 98 x[3] + 27 x[4] + 85 x[5]
   + 24 x[6] + 83 x[7] + 64 x[8] + 69 x[9] + 75 x[10] + 98 x[11] + 19 x[12]
   + 47 x[13] + 88 x[14] + 88 x[15] + 100 x[16] + 47 x[17] + 100 x[18]
   + 5 x[19] + 64 x[20] + 11 x[21] + 95 x[22] + 74 x[23] + 96 x[24]
   + 15 x[25] + 73 x[26] + 15 x[27] + 61 x[28] + 86 x[29] + 9 x[30]
   + 11 x[31] + 67 x[32] + 60 x[33] + 3 x[34] + 20 x[35] + 35 x[36]
   + 24 x[37] + 55 x[38] + 30 x[39] + 94 x[40] + 69 x[41] + 13 x[42]
   + x[43] + 26 x[44] + 38 x[45] + 17 x[46] + 69 x[47] + 94 x[48]
   + 19 x[49] + 54 x[50] + 95 x[51] + 28 x[52] + 95 x[53] + 8 x[54]
   + 19 x[55] + 88 x[56] + 42 x[57] + 3 x[58] + 89 x[59] + 24 x[60]
   + 78 x[61] + 39 x[62] + 50 x[63] + 83 x[64] + 23 x[65] + 92 x[66]
   + 70 x[67] + 67 x[68] + 33 x[69] + 61 x[70] + 5 x[71] + 89 x[72]
   + 22 x[73] + 3 x[74] + 80 x[75] + 26 x[76] + 66 x[77] + 72 x[78]
   + 42 x[79] + 61 x[80] + 13 x[81] + 14 x[82] + 13 x[83] + 45 x[84]
   + 65 x[85] + 99 x[86] + 27 x[87] + 13 x[88] + 50 x[89] + 64 x[90]
   + 48 x[91] + 60 x[92] + 11 x[93] + 59 x[94] + 56 x[95] + 8 x[96]
   + 24 x[97] + 27 x[98] + 83 x[99] + 88 x[100] + 75 x[101] + 5 x[102]
   + 3 x[103] + 40 x[104] + 73 x[105] + 14 x[106] + 70 x[107] + 58 x[108]
   + 32 x[109] + 86 x[110] + 10 x[111] + 16 x[112] + 44 x[113] + 40 x[114]
   + 74 x[115] + 98 x[116] + 80 x[117] + 36 x[118] + 36 x[119] + 9.1 r[0]
   + 2.3 r[1] + 8.5 r[2] + 9.8 r[3] + 2.7 r[4] + 8.5 r[5] + 2.4 r[6]
   + 8.3 r[7] + 6.4 r[8] + 6.9 r[9] + 7.5 r[10] + 9.8 r[11] + 1.9 r[12]
   + 4.7 r[13] + 8.8 r[14] + 8.8 r[15] + 10 r[16] + 4.7 r[17] + 10 r[18]
   + 0.5 r[19] + 6.4 r[20] + 1.1 r[21] + 9.5 r[22] + 7.4 r[23] + 9.6 r[24]
   + 1.5 r[25] + 7.3 r[26] + 1.5 r[27] + 6.1 r[28] + 8.6 r[29] + 0.9 r[30]
   + 1.1 r[31] + 6.7 r[32] + 6 r[33] + 0.3 r[34] + 2 r[35] + 3.5 r[36]
   + 2.4 r[37] + 5.5 r[38] + 3 r[39] + 9.4 r[40] + 6.9 r[41] + 1.3 r[42]
   + 0.1 r[43] + 2.6 r[44] + 3.8 r[45] + 1.7 r[46] + 6.9 r[47] + 9.4 r[48]
   + 1.9 r[49] + 5.4 r[50] + 9.5 r[51] + 2.8 r[52] + 9.5 r[53] + 0.8 r[54]
   + 1.9 r[55] + 8.8 r[56] + 4.2 r[57] + 0.3 r[58] + 8.9 r[59] + 2.4 r[60]
   + 7.8 r[61] + 3.9 r[62] + 5 r[63] + 8.3 r[64] + 2.3 r[65] + 9.2 r[66]
   + 7 r[67] + 6.7 r[68] + 3.3 r[69] + 6.1 r[70] + 0.5 r[71] + 8.9 r[72]
   + 2.2 r[73] + 0.3 r[74] + 8 r[75] + 2.6 r[76] + 6.6 r[77] + 7.2 r[78]
   + 4.2 r[79] + 6.1 r[80] + 1.3 r[81] + 1.4 r[82] + 1.3 r[83] + 4.5 r[84]
   + 6.5 r[85] + 9.9 r[86] + 2.7 r[87] + 1.3 r[88] + 5 r[89] + 6.4 r[90]
   + 4.8 r[91] + 6 r[92] + 1.1 r[93] + 5.9 r[94] + 5.6 r[95] + 0.8 r[96]
   + 2.4 r[97] + 2.7 r[98] + 8.3 r[99] + 8.8 r[100] + 7.5 r[101]
   + 0.5 r[102] + 0.3 r[103] + 4 r[104] + 7.3 r[105] + 1.4 r[106]
   + 7 r[107] + 5.8 r[108] + 3.2 r[109] + 8.6 r[110] + r[111] + 1.6 r[112]
   + 4.4 r[113] + 4 r[114] + 7.4 r[115] + 9.8 r[116] + 8 r[117]
   + 3.6 r[118] + 3.6 r[119] <= 573
 primal_lower: 3.692535890158304 x[0] + 0.3103692512313769 x[1]
   + 4.161612150301187 x[2] + 1.443676361364674 x[3]
   + 4.484484779640029 x[4] + 0.9638343319251562 x[5]
   + 2.401614165602571 x[6] + 2.009159629431287 x[7]
   + 4.302990597566159 x[8] + 2.176984395006954 x[9]
   + 4.280597384935986 x[10] + 0.8011179077517291 x[11]
   + 4.448223934627063 x[12] + 1.409936720479975 x[13]
   + 2.813346548510583 x[14] + 2.982439960226548 x[15]
   + 1.87353185613022 x[16] + 4.081215369840682 x[17]
   + 4.366825153733505 x[18] + 0.9774279985594935 x[19]
   + 1.700042011771457 x[20] + 4.3963389534743 x[21]
   + 4.349870039966778 x[22] + 4.615554258933481 x[23]
   + 3.562271338140371 x[24] + 3.719964635111626 x[25]
   + 0.8262918642166319 x[26] + 4.573530899075191 x[27]
   + 0.431880249870891 x[28] + 3.40194820547809 x[29]
   + 0.8443284813793633 x[30] + 4.59934381311303 x[31]
   + 3.914527421343929 x[32] + 1.969720145741533 x[33]
   + 4.531194059990003 x[34] + 0.4799974830460549 x[35]
   + 1.50109892720013 x[36] + 2.42683914306278 x[37]
   + 0.6031473697725344 x[38] + 3.366435488289357 x[39]
   + 2.838442705161935 x[40] + 3.445686648492162 x[41]
   + 3.822884558192591 x[42] + 2.260952381654238 x[43]
   + 0.5266877756812033 x[44] + 4.1883528373484 x[45]
   + 4.221507645138248 x[46] + 0.6446231368531024 x[47]
   + 3.220240756527653 x[48] + 4.286162721504287 x[49]
   + 4.392451928967 x[50] + 4.159288991247188 x[51]
   + 3.671665471923726 x[52] + 1.320240663381498 x[53]
   + 1.60884014450498 x[54] + 0.4462053926523861 x[55]
   + 4.041923759200116 x[56] + 3.206342694924797 x[57]
   + 2.352172872549137 x[58] + 3.868333679414178 x[59]
   + 0.2040274523260805 x[60] + 4.236408784523938 x[61]
   + 3.233680564622196 x[62] + 0.9659238699705287 x[63]
   + 2.78062608519831 x[64] + 0.0782908301506735 x[65]
   + 2.596156228019027 x[66] + 3.871293017733525 x[67]
   + 3.949623932352966 x[68] + 0.3275520987183165 x[69]
   + 0.9991643503921563 x[70] + 3.344243180716495 x[71]
   + 1.713976655951885 x[72] + 4.453054706895027 x[73]
   + 2.15331985828863 x[74] + 4.253654632593888 x[75]
   + 2.534792290122583 x[76] + 3.777085374905739 x[77]
   + 3.355526739224913 x[78] + 1.8563325671372 x[79]
   + 4.204134304021728 x[80] + 0.8308299170961787 x[81]
   + 4.740699686033831 x[82] + 1.364282833188108 x[83]
   + 0.8720027141700128 x[84] + 2.500602137178137 x[85]
   + 2.807938891785631 x[86] + 2.702720925303765 x[87]
   + 1.13094532177484 x[88] + 1.829711116507316 x[89]
   + 4.498859548156938 x[90] + 1.193256806190835 x[91]
   + 1.338100538400622 x[92] + 0.2277761632008886 x[93]
   + 2.190077234539563 x[94] + 1.146494486653557 x[95]
   + 1.340989215037629 x[96] + 2.972549252528763 x[97]
   + 0.4882482068320619 x[98] + 2.95745579257441 x[99]
   + 4.190086899189093 x[100] + 0.9874691264883843 x[101]
   + 1.015420964150158 x[102] + 2.351991725275667 x[103]
   + 1.909782825812842 x[104] + 4.210885261588687 x[105]
   + 3.530847599116516 x[106] + 4.206294619984202 x[107]
   + 2.056980554680141 x[108] + 3.996072073695092 x[109]
   + 0.753886133852995 x[110] + 4.560648254638769 x[111]
   + 1.121696627856587 x[112] + 3.276269516425245 x[113]
   + 3.904028935303663 x[114] + 1.797563109839512 x[115]
   + 1.315575051718452 x[116] + 1.419089859767802 x[117]
   + 4.439772330477027 x[118] + 0.2812276354599918 x[119] + 68 u[0]
   + 72 u[1] + 2 u[2] + 3 u[3] + 88 u[4] + 46 u[5] + 5 u[6] + 68 u[7]
   + 97 u[8] + 14 u[9] + 44 u[10] + 7 u[11] + 80 u[12] + 84 u[13]
   + 33 u[14] + 93 u[15] + u[16] + 96 u[17] + 77 u[18] + 38 u[19]
   + 49 u[20] + 12 u[21] + 44 u[22] + 95 u[23] + 33 u[24] + 24 u[25]
   + 54 u[26] + 20 u[27] + 10 u[28] + 91 u[29] + 70 u[30] + 20 u[31]
   + 64 u[32] + 85 u[33] + 76 u[34] + 97 u[35] + 16 u[36] + 93 u[37]
   + 36 u[38] + 59 u[39] + 19 u[40] + 6 u[41] + 58 u[42] + 42 u[43]
   + 23 u[44] + 31 u[45] + 42 u[46] + 6 u[47] + 3 u[48] + 72 u[49]
   + 39 u[50] + 60 u[51] + 5 u[52] + 4 u[53] + 9 u[54] + 76 u[55]
   + 53 u[56] + 51 u[57] + 68 u[58] + 70 u[59] + 5 u[60] + 11 u[61]
   + 92 u[62] + 35 u[63] + 92 u[64] + 76 u[65] + 81 u[66] + 11 u[67]
   + 48 u[68] + 74 u[69] + 98 u[70] + 78 u[71] + 86 u[72] + 79 u[73]
   + 52 u[74] + 29 u[75] + 55 u[76] + 67 u[77] + 65 u[78] + 67 u[79]
   + 50 u[80] + 46 u[81] + 23 u[82] + 6 u[83] + 50 u[84] + 58 u[85]
   + 72 u[86] + 68 u[87] + 82 u[88] + 31 u[89] + 89 u[90] + 41 u[91]
   + 21 u[92] + 64 u[93] + 16 u[94] + 61 u[95] + 97 u[96] + 33 u[97]
   + 12 u[98] + 4 u[99] + 69 u[100] + 84 u[101] + 46 u[102] + 64 u[103]
   + 81 u[104] + 2 u[105] + 19 u[106] + 3 u[107] + 11 u[108] + 69 u[109]
   + 83 u[110] + 79 u[111] + 25 u[112] + 33 u[113] + 93 u[114] + 99 u[115]
   + 87 u[116] + 69 u[117] + 37 u[118] + 69 u[119] <= 59730
 mccormick1[0]: - u[0] + r[0] <= 0
 mccormick1[1]: - u[1] + r[1] <= 0
 mccormick1[2]: - u[2] + r[2] <= 0
 mccormick1[3]: - u[3] + r[3] <= 0
 mccormick1[4]: - u[4] + r[4] <= 0
 mccormick1[5]: - u[5] + r[5] <= 0
 mccormick1[6]: - u[6] + r[6] <= 0
 mccormick1[7]: - u[7] + r[7] <= 0
 mccormick1[8]: - u[8] + r[8] <= 0
 mccormick1[9]: - u[9] + r[9] <= 0
 mccormick1[10]: - u[10] + r[10] <= 0
 mccormick1[11]: - u[11] + r[11] <= 0
 mccormick1[12]: - u[12] + r[12] <= 0
 mccormick1[13]: - u[13] + r[13] <= 0
 mccormick1[14]: - u[14] + r[14] <= 0
 mccormick1[15]: - u[15] + r[15] <= 0
 mccormick1[16]: - u[16] + r[16] <= 0
 mccormick1[17]: - u[17] + r[17] <= 0
 mccormick1[18]: - u[18] + r[18] <= 0
 mccormick1[19]: - u[19] + r[19] <= 0
 mccormick1[20]: - u[20] + r[20] <= 0
 mccormick1[21]: - u[21] + r[21] <= 0
 mccormick1[22]: - u[22] + r[22] <= 0
 mccormick1[23]: - u[23] + r[23] <= 0
 mccormick1[24]: - u[24] + r[24] <= 0
 mccormick1[25]: - u[25] + r[25] <= 0
 mccormick1[26]: - u[26] + r[26] <= 0
 mccormick1[27]: - u[27] + r[27] <= 0
 mccormick1[28]: - u[28] + r[28] <= 0
 mccormick1[29]: - u[29] + r[29] <= 0
 mccormick1[30]: - u[30] + r[30] <= 0
 mccormick1[31]: - u[31] + r[31] <= 0
 mccormick1[32]: - u[32] + r[32] <= 0
 mccormick1[33]: - u[33] + r[33] <= 0
 mccormick1[34]: - u[34] + r[34] <= 0
 mccormick1[35]: - u[35] + r[35] <= 0
 mccormick1[36]: - u[36] + r[36] <= 0
 mccormick1[37]: - u[37] + r[37] <= 0
 mccormick1[38]: - u[38] + r[38] <= 0
 mccormick1[39]: - u[39] + r[39] <= 0
 mccormick1[40]: - u[40] + r[40] <= 0
 mccormick1[41]: - u[41] + r[41] <= 0
 mccormick1[42]: - u[42] + r[42] <= 0
 mccormick1[43]: - u[43] + r[43] <= 0
 mccormick1[44]: - u[44] + r[44] <= 0
 mccormick1[45]: - u[45] + r[45] <= 0
 mccormick1[46]: - u[46] + r[46] <= 0
 mccormick1[47]: - u[47] + r[47] <= 0
 mccormick1[48]: - u[48] + r[48] <= 0
 mccormick1[49]: - u[49] + r[49] <= 0
 mccormick1[50]: - u[50] + r[50] <= 0
 mccormick1[51]: - u[51] + r[51] <= 0
 mccormick1[52]: - u[52] + r[52] <= 0
 mccormick1[53]: - u[53] + r[53] <= 0
 mccormick1[54]: - u[54] + r[54] <= 0
 mccormick1[55]: - u[55] + r[55] <= 0
 mccormick1[56]: - u[56] + r[56] <= 0
 mccormick1[57]: - u[57] + r[57] <= 0
 mccormick1[58]: - u[58] + r[58] <= 0
 mccormick1[59]: - u[59] + r[59] <= 0
 mccormick1[60]: - u[60] + r[60] <= 0
 mccormick1[61]: - u[61] + r[61] <= 0
 mccormick1[62]: - u[62] + r[62] <= 0
 mccormick1[63]: - u[63] + r[63] <= 0
 mccormick1[64]: - u[64] + r[64] <= 0
 mccormick1[65]: - u[65] + r[65] <= 0
 mccormick1[66]: - u[66] + r[66] <= 0
 mccormick1[67]: - u[67] + r[67] <= 0
 mccormick1[68]: - u[68] + r[68] <= 0
 mccormick1[69]: - u[69] + r[69] <= 0
 mccormick1[70]: - u[70] + r[70] <= 0
 mccormick1[71]: - u[71] + r[71] <= 0
 mccormick1[72]: - u[72] + r[72] <= 0
 mccormick1[73]: - u[73] + r[73] <= 0
 mccormick1[74]: - u[74] + r[74] <= 0
 mccormick1[75]: - u[75] + r[75] <= 0
 mccormick1[76]: - u[76] + r[76] <= 0
 mccormick1[77]: - u[77] + r[77] <= 0
 mccormick1[78]: - u[78] + r[78] <= 0
 mccormick1[79]: - u[79] + r[79] <= 0
 mccormick1[80]: - u[80] + r[80] <= 0
 mccormick1[81]: - u[81] + r[81] <= 0
 mccormick1[82]: - u[82] + r[82] <= 0
 mccormick1[83]: - u[83] + r[83] <= 0
 mccormick1[84]: - u[84] + r[84] <= 0
 mccormick1[85]: - u[85] + r[85] <= 0
 mccormick1[86]: - u[86] + r[86] <= 0
 mccormick1[87]: - u[87] + r[87] <= 0
 mccormick1[88]: - u[88] + r[88] <= 0
 mccormick1[89]: - u[89] + r[89] <= 0
 mccormick1[90]: - u[90] + r[90] <= 0
 mccormick1[91]: - u[91] + r[91] <= 0
 mccormick1[92]: - u[92] + r[92] <= 0
 mccormick1[93]: - u[93] + r[93] <= 0
 mccormick1[94]: - u[94] + r[94] <= 0
 mccormick1[95]: - u[95] + r[95] <= 0
 mccormick1[96]: - u[96] + r[96] <= 0
 mccormick1[97]: - u[97] + r[97] <= 0
 mccormick1[98]: - u[98] + r[98] <= 0
 mccormick1[99]: - u[99] + r[99] <= 0
 mccormick1[100]: - u[100] + r[100] <= 0
 mccormick1[101]: - u[101] + r[101] <= 0
 mccormick1[102]: - u[102] + r[102] <= 0
 mccormick1[103]: - u[103] + r[103] <= 0
 mccormick1[104]: - u[104] + r[104] <= 0
 mccormick1[105]: - u[105] + r[105] <= 0
 mccormick1[106]: - u[106] + r[106] <= 0
 mccormick1[107]: - u[107] + r[107] <= 0
 mccormick1[108]: - u[108] + r[108] <= 0
 mccormick1[109]: - u[109] + r[109] <= 0
 mccormick1[110]: - u[110] + r[110] <= 0
 mccormick1[111]: - u[111] + r[111] <= 0
 mccormick1[112]: - u[112] + r[112] <= 0
 mccormick1[113]: - u[113] + r[113] <= 0
 mccormick1[114]: - u[114] + r[114] <= 0
 mccormick1[115]: - u[115] + r[115] <= 0
 mccormick1[116]: - u[116] + r[116] <= 0
 mccormick1[117]: - u[117] + r[117] <= 0
 mccormick1[118]: - u[118] + r[118] <= 0
 mccormick1[119]: - u[119] + r[119] <= 0
 mccormick2[0]: - x[0] + r[0] <= 0
 mccormick2[1]: - x[1] + r[1] <= 0
 mccormick2[2]: - x[2] + r[2] <= 0
 mccormick2[3]: - x[3] + r[3] <= 0
 mccormick2[4]: - x[4] + r[4] <= 0
 mccormick2[5]: - x[5] + r[5] <= 0
 mccormick2[6]: - x[6] + r[6] <= 0
 mccormick2[7]: - x[7] + r[7] <= 0
 mccormick2[8]: - x[8] + r[8] <= 0
 mccormick2[9]: - x[9] + r[9] <= 0
 mccormick2[10]: - x[10] + r[10] <= 0
 mccormick2[11]: - x[11] + r[11] <= 0
 mccormick2[12]: - x[12] + r[12] <= 0
 mccormick2[13]: - x[13] + r[13] <= 0
 mccormick2[14]: - x[14] + r[14] <= 0
 mccormick2[15]: - x[15] + r[15] <= 0
 mccormick2[16]: - x[16] + r[16] <= 0
 mccormick2[17]: - x[17] + r[17] <= 0
 mccormick2[18]: - x[18] + r[18] <= 0
 mccormick2[19]: - x[19] + r[19] <= 0
 mccormick2[20]: - x[20] + r[20] <= 0
 mccormick2[21]: - x[21] + r[21] <= 0
 mccormick2[22]: - x[22] + r[22] <= 0
 mccormick2[23]: - x[23] + r[23] <= 0
 mccormick2[24]: - x[24] + r[24] <= 0
 mccormick2[25]: - x[25] + r[25] <= 0
 mccormick2[26]: - x[26] + r[26] <= 0
 mccormick2[27]: - x[27] + r[27] <= 0
 mccormick2[28]: - x[28] + r[28] <= 0
 mccormick2[29]: - x[29] + r[29] <= 0
 mccormick2[30]: - x[30] + r[30] <= 0
 mccormick2[31]: - x[31] + r[31] <= 0
 mccormick2[32]: - x[32] + r[32] <= 0
 mccormick2[33]: - x[33] + r[33] <= 0
 mccormick2[34]: - x[34] + r[34] <= 0
 mccormick2[35]: - x[35] + r[35] <= 0
 mccormick2[36]: - x[36] + r[36] <= 0
 mccormick2[37]: - x[37] + r[37] <= 0
 mccormick2[38]: - x[38] + r[38] <= 0
 mccormick2[39]: - x[39] + r[39] <= 0
 mccormick2[40]: - x[40] + r[40] <= 0
 mccormick2[41]: - x[41] + r[41] <= 0
 mccormick2[42]: - x[42] + r[42] <= 0
 mccormick2[43]: - x[43] + r[43] <= 0
 mccormick2[44]: - x[44] + r[44] <= 0
 mccormick2[45]: - x[45] + r[45] <= 0
 mccormick2[46]: - x[46] + r[46] <= 0
 mccormick2[47]: - x[47] + r[47] <= 0
 mccormick2[48]: - x[48] + r[48] <= 0
 mccormick2[49]: - x[49] + r[49] <= 0
 mccormick2[50]: - x[50] + r[50] <= 0
 mccormick2[51]: - x[51] + r[51] <= 0
 mccormick2[52]: - x[52] + r[52] <= 0
 mccormick2[53]: - x[53] + r[53] <= 0
 mccormick2[54]: - x[54] + r[54] <= 0
 mccormick2[55]: - x[55] + r[55] <= 0
 mccormick2[56]: - x[56] + r[56] <= 0
 mccormick2[57]: - x[57] + r[57] <= 0
 mccormick2[58]: - x[58] + r[58] <= 0
 mccormick2[59]: - x[59] + r[59] <= 0
 mccormick2[60]: - x[60] + r[60] <= 0
 mccormick2[61]: - x[61] + r[61] <= 0
 mccormick2[62]: - x[62] + r[62] <= 0
 mccormick2[63]: - x[63] + r[63] <= 0
 mccormick2[64]: - x[64] + r[64] <= 0
 mccormick2[65]: - x[65] + r[65] <= 0
 mccormick2[66]: - x[66] + r[66] <= 0
 mccormick2[67]: - x[67] + r[67] <= 0
 mccormick2[68]: - x[68] + r[68] <= 0
 mccormick2[69]: - x[69] + r[69] <= 0
 mccormick2[70]: - x[70] + r[70] <= 0
 mccormick2[71]: - x[71] + r[71] <= 0
 mccormick2[72]: - x[72] + r[72] <= 0
 mccormick2[73]: - x[73] + r[73] <= 0
 mccormick2[74]: - x[74] + r[74] <= 0
 mccormick2[75]: - x[75] + r[75] <= 0
 mccormick2[76]: - x[76] + r[76] <= 0
 mccormick2[77]: - x[77] + r[77] <= 0
 mccormick2[78]: - x[78] + r[78] <= 0
 mccormick2[79]: - x[79] + r[79] <= 0
 mccormick2[80]: - x[80] + r[80] <= 0
 mccormick2[81]: - x[81] + r[81] <= 0
 mccormick2[82]: - x[82] + r[82] <= 0
 mccormick2[83]: - x[83] + r[83] <= 0
 mccormick2[84]: - x[84] + r[84] <= 0
 mccormick2[85]: - x[85] + r[85] <= 0
 mccormick2[86]: - x[86] + r[86] <= 0
 mccormick2[87]: - x[87] + r[87] <= 0
 mccormick2[88]: - x[88] + r[88] <= 0
 mccormick2[89]: - x[89] + r[89] <= 0
 mccormick2[90]: - x[90] + r[90] <= 0
 mccormick2[91]: - x[91] + r[91] <= 0
 mccormick2[92]: - x[92] + r[92] <= 0
 mccormick2[93]: - x[93] + r[93] <= 0
 mccormick2[94]: - x[94] + r[94] <= 0
 mccormick2[95]: - x[95] + r[95] <= 0
 mccormick2[96]: - x[96] + r[96] <= 0
 mccormick2[97]: - x[97] + r[97] <= 0
 mccormick2[98]: - x[98] + r[98] <= 0
 mccormick2[99]: - x[99] + r[99] <= 0
 mccormick2[100]: - x[100] + r[100] <= 0
 mccormick2[101]: - x[101] + r[101] <= 0
 mccormick2[102]: - x[102] + r[102] <= 0
 mccormick2[103]: - x[103] + r[103] <= 0
 mccormick2[104]: - x[104] + r[104] <= 0
 mccormick2[105]: - x[105] + r[105] <= 0
 mccormick2[106]: - x[106] + r[106] <= 0
 mccormick2[107]: - x[107] + r[107] <= 0
 mccormick2[108]: - x[108] + r[108] <= 0
 mccormick2[109]: - x[109] + r[109] <= 0
 mccormick2[110]: - x[110] + r[110] <= 0
 mccormick2[111]: - x[111] + r[111] <= 0
 mccormick2[112]: - x[112] + r[112] <= 0
 mccormick2[113]: - x[113] + r[113] <= 0
 mccormick2[114]: - x[114] + r[114] <= 0
 mccormick2[115]: - x[115] + r[115] <= 0
 mccormick2[116]: - x[116] + r[116] <= 0
 mccormick2[117]: - x[117] + r[117] <= 0
 mccormick2[118]: - x[118] + r[118] <= 0
 mccormick2[119]: - x[119] + r[119] <= 0
 mccormick3[0]: x[0] + u[0] - r[0] <= 1
 mccormick3[1]: x[1] + u[1] - r[1] <= 1
 mccormick3[2]: x[2] + u[2] - r[2] <= 1
 mccormick3[3]: x[3] + u[3] - r[3] <= 1
 mccormick3[4]: x[4] + u[4] - r[4] <= 1
 mccormick3[5]: x[5] + u[5] - r[5] <= 1
 mccormick3[6]: x[6] + u[6] - r[6] <= 1
 mccormick3[7]: x[7] + u[7] - r[7] <= 1
 mccormick3[8]: x[8] + u[8] - r[8] <= 1
 mccormick3[9]: x[9] + u[9] - r[9] <= 1
 mccormick3[10]: x[10] + u[10] - r[10] <= 1
 mccormick3[11]: x[11] + u[11] - r[11] <= 1
 mccormick3[12]: x[12] + u[12] - r[12] <= 1
 mccormick3[13]: x[13] + u[13] - r[13] <= 1
 mccormick3[14]: x[14] + u[14] - r[14] <= 1
 mccormick3[15]: x[15] + u[15] - r[15] <= 1
 mccormick3[16]: x[16] + u[16] - r[16] <= 1
 mccormick3[17]: x[17] + u[17] - r[17] <= 1
 mccormick3[18]: x[18] + u[18] - r[18] <= 1
 mccormick3[19]: x[19] + u[19] - r[19] <= 1
 mccormick3[20]: x[20] + u[20] - r[20] <= 1
 mccormick3[21]: x[21] + u[21] - r[21] <= 1
 mccormick3[22]: x[22] + u[22] - r[22] <= 1
 mccormick3[23]: x[23] + u[23] - r[23] <= 1
 mccormick3[24]: x[24] + u[24] - r[24] <= 1
 mccormick3[25]: x[25] + u[25] - r[25] <= 1
 mccormick3[26]: x[26] + u[26] - r[26] <= 1
 mccormick3[27]: x[27] + u[27] - r[27] <= 1
 mccormick3[28]: x[28] + u[28] - r[28] <= 1
 mccormick3[29]: x[29] + u[29] - r[29] <= 1
 mccormick3[30]: x[30] + u[30] - r[30] <= 1
 mccormick3[31]: x[31] + u[31] - r[31] <= 1
 mccormick3[32]: x[32] + u[32] - r[32] <= 1
 mccormick3[33]: x[33] + u[33] - r[33] <= 1
 mccormick3[34]: x[34] + u[34] - r[34] <= 1
 mccormick3[35]: x[35] + u[35] - r[35] <= 1
 mccormick3[36]: x[36] + u[36] - r[36] <= 1
 mccormick3[37]: x[37] + u[37] - r[37] <= 1
 mccormick3[38]: x[38] + u[38] - r[38] <= 1
 mccormick3[39]: x[39] + u[39] - r[39] <= 1
 mccormick3[40]: x[40] + u[40] - r[40] <= 1
 mccormick3[41]: x[41] + u[41] - r[41] <= 1
 mccormick3[42]: x[42] + u[42] - r[42] <= 1
 mccormick3[43]: x[43] + u[43] - r[43] <= 1
 mccormick3[44]: x[44] + u[44] - r[44] <= 1
 mccormick3[45]: x[45] + u[45] - r[45] <= 1
 mccormick3[46]: x[46] + u[46] - r[46] <= 1
 mccormick3[47]: x[47] + u[47] - r[47] <= 1
 mccormick3[48]: x[48] + u[48] - r[48] <= 1
 mccormick3[49]: x[49] + u[49] - r[49] <= 1
 mccormick3[50]: x[50] + u[50] - r[50] <= 1
 mccormick3[51]: x[51] + u[51] - r[51] <= 1
 mccormick3[52]: x[52] + u[52] - r[52] <= 1
 mccormick3[53]: x[53] + u[53] - r[53] <= 1
 mccormick3[54]: x[54] + u[54] - r[54] <= 1
 mccormick3[55]: x[55] + u[55] - r[55] <= 1
 mccormick3[56]: x[56] + u[56] - r[56] <= 1
 mccormick3[57]: x[57] + u[57] - r[57] <= 1
 mccormick3[58]: x[58] + u[58] - r[58] <= 1
 mccormick3[59]: x[59] + u[59] - r[59] <= 1
 mccormick3[60]: x[60] + u[60] - r[60] <= 1
 mccormick3[61]: x[61] + u[61] - r[61] <= 1
 mccormick3[62]: x[62] + u[62] - r[62] <= 1
 mccormick3[63]: x[63] + u[63] - r[63] <= 1
 mccormick3[64]: x[64] + u[64] - r[64] <= 1
 mccormick3[65]: x[65] + u[65] - r[65] <= 1
 mccormick3[66]: x[66] + u[66] - r[66] <= 1
 mccormick3[67]: x[67] + u[67] - r[67] <= 1
 mccormick3[68]: x[68] + u[68] - r[68] <= 1
 mccormick3[69]: x[69] + u[69] - r[69] <= 1
 mccormick3[70]: x[70] + u[70] - r[70] <= 1
 mccormick3[71]: x[71] + u[71] - r[71] <= 1
 mccormick3[72]: x[72] + u[72] - r[72] <= 1
 mccormick3[73]: x[73] + u[73] - r[73] <= 1
 mccormick3[74]: x[74] + u[74] - r[74] <= 1
 mccormick3[75]: x[75] + u[75] - r[75] <= 1
 mccormick3[76]: x[76] + u[76] - r[76] <= 1
 mccormick3[77]: x[77] + u[77] - r[77] <= 1
 mccormick3[78]: x[78] + u[78] - r[78] <= 1
 mccormick3[79]: x[79] + u[79] - r[79] <= 1
 mccormick3[80]: x[80] + u[80] - r[80] <= 1
 mccormick3[81]: x[81] + u[81] - r[81] <= 1
 mccormick3[82]: x[82] + u[82] - r[82] <= 1
 mccormick3[83]: x[83] + u[83] - r[83] <= 1
 mccormick3[84]: x[84] + u[84] - r[84] <= 1
 mccormick3[85]: x[85] + u[85] - r[85] <= 1
 mccormick3[86]: x[86] + u[86] - r[86] <= 1
 mccormick3[87]: x[87] + u[87] - r[87] <= 1
 mccormick3[88]: x[88] + u[88] - r[88] <= 1
 mccormick3[89]: x[89] + u[89] - r[89] <= 1
 mccormick3[90]: x[90] + u[90] - r[90] <= 1
 mccormick3[91]: x[91] + u[91] - r[91] <= 1
 mccormick3[92]: x[92] + u[92] - r[92] <= 1
 mccormick3[93]: x[93] + u[93] - r[93] <= 1
 mccormick3[94]: x[94] + u[94] - r[94] <= 1
 mccormick3[95]: x[95] + u[95] - r[95] <= 1
 mccormick3[96]: x[96] + u[96] - r[96] <= 1
 mccormick3[97]: x[97] + u[97] - r[97] <= 1
 mccormick3[98]: x[98] + u[98] - r[98] <= 1
 mccormick3[99]: x[99] + u[99] - r[99] <= 1
 mccormick3[100]: x[100] + u[100] - r[100] <= 1
 mccormick3[101]: x[101] + u[101] - r[101] <= 1
 mccormick3[102]: x[102] + u[102] - r[102] <= 1
 mccormick3[103]: x[103] + u[103] - r[103] <= 1
 mccormick3[104]: x[104] + u[104] - r[104] <= 1
 mccormick3[105]: x[105] + u[105] - r[105] <= 1
 mccormick3[106]: x[106] + u[106] - r[106] <= 1
 mccormick3[107]: x[107] + u[107] - r[107] <= 1
 mccormick3[108]: x[108] + u[108] - r[108] <= 1
 mccormick3[109]: x[109] + u[109] - r[109] <= 1
 mccormick3[110]: x[110] + u[110] - r[110] <= 1
 mccormick3[111]: x[111] + u[111] - r[111] <= 1
 mccormick3[112]: x[112] + u[112] - r[112] <= 1
 mccormick3[113]: x[113] + u[113] - r[113] <= 1
 mccormick3[114]: x[114] + u[114] - r[114] <= 1
 mccormick3[115]: x[115] + u[115] - r[115] <= 1
 mccormick3[116]: x[116] + u[116] - r[116] <= 1
 mccormick3[117]: x[117] + u[117] - r[117] <= 1
 mccormick3[118]: x[118] + u[118] - r[118] <= 1
 mccormick3[119]: x[119] + u[119] - r[119] <= 1
Bounds
Binaries
 x[0] x[1] x[2] x[3] x[4] x[5] x[6] x[7] x[8] x[9] x[10] x[11] x[12] x[13]
 x[14] x[15] x[16] x[17] x[18] x[19] x[20] x[21] x[22] x[23] x[24] x[25]
 x[26] x[27] x[28] x[29] x[30] x[31] x[32] x[33] x[34] x[35] x[36] x[37]
 x[38] x[39] x[40] x[41] x[42] x[43] x[44] x[45] x[46] x[47] x[48] x[49]
 x[50] x[51] x[52] x[53] x[54] x[55] x[56] x[57] x[58] x[59] x[60] x[61]
 x[62] x[63] x[64] x[65] x[66] x[67] x[68] x[69] x[70] x[71] x[72] x[73]
 x[74] x[75] x[76] x[77] x[78] x[79] x[80] x[81] x[82] x[83] x[84] x[85]
 x[86] x[87] x[88] x[89] x[90] x[91] x[92] x[93] x[94] x[95] x[96] x[97]
 x[98] x[99] x[100] x[101] x[102] x[103] x[104] x[105] x[106] x[107] x[108]
 x[109] x[110] x[111] x[112] x[113] x[114] x[115] x[116] x[117] x[118]
 x[119] u[0] u[1] u[2] u[3] u[4] u[5] u[6] u[7] u[8] u[9] u[10] u[11] u[12]
 u[13] u[14] u[15] u[16] u[17] u[18] u[19] u[20] u[21] u[22] u[23] u[24]
 u[25] u[26] u[27] u[28] u[29] u[30] u[31] u[32] u[33] u[34] u[35] u[36]
 u[37] u[38] u[39] u[40] u[41] u[42] u[43] u[44] u[45] u[46] u[47] u[48]
 u[49] u[50] u[51] u[52] u[53] u[54] u[55] u[56] u[57] u[58] u[59] u[60]
 u[61] u[62] u[63] u[64] u[65] u[66] u[67] u[68] u[69] u[70] u[71] u[72]
 u[73] u[74] u[75] u[76] u[77] u[78] u[79] u[80] u[81] u[82] u[83] u[84]
 u[85] u[86] u[87] u[88] u[89] u[90] u[91] u[92] u[93] u[94] u[95] u[96]
 u[97] u[98] u[99] u[100] u[101] u[102] u[103] u[104] u[105] u[106] u[107]
 u[108] u[109] u[110] u[111] u[112] u[113] u[114] u[115] u[116] u[117]
 u[118] u[119] r[0] r[1] r[2] r[3] r[4] r[5] r[6] r[7] r[8] r[9] r[10]
 r[11] r[12] r[13] r[14] r[15] r[16] r[17] r[18] r[19] r[20] r[21] r[22]
 r[23] r[24] r[25] r[26] r[27] r[28] r[29] r[30] r[31] r[32] r[33] r[34]
 r[35] r[36] r[37] r[38] r[39] r[40] r[41] r[42] r[43] r[44] r[45] r[46]
 r[47] r[48] r[49] r[50] r[51] r[52] r[53] r[54] r[55] r[56] r[57] r[58]
 r[59] r[60] r[61] r[62] r[63] r[64] r[65] r[66] r[67] r[68] r[69] r[70]
 r[71] r[72] r[73] r[74] r[75] r[76] r[77] r[78] r[79] r[80] r[81] r[82]
 r[83] r[84] r[85] r[86] r[87] r[88] r[89] r[90] r[91] r[92] r[93] r[94]
 r[95] r[96] r[97] r[98] r[99] r[100] r[101] r[102] r[103] r[104] r[105]
 r[106] r[107] r[108] r[109] r[110] r[111] r[112] r[113] r[114] r[115]
 r[116] r[117] r[118] r[119]
End
