instances/knapsack/discrete_knapsack_uncertainty/knapsack_120_3.kp
68688
120
573

91 9.1 13
23 2.3 14
85 8.5 99
98 9.8 19
27 2.7 37
85 8.5 92
24 2.4 45
83 8.3 7
64 6.4 22
69 6.9 86
75 7.5 22
98 9.8 38
19 1.9 42
47 4.7 93
88 8.8 10
88 8.8 55
100 10.0 73
47 4.7 89
100 10.0 34
5 0.5 65
64 6.4 97
11 1.1 34
95 9.5 67
74 7.4 67
96 9.6 68
15 1.5 34
73 7.3 23
15 1.5 67
61 6.1 13
86 8.6 72
9 0.9 20
11 1.1 83
67 6.7 23
60 6.0 30
3 0.3 11
20 2.0 12
35 3.5 64
24 2.4 42
55 5.5 34
30 3.0 95
94 9.4 79
69 6.9 57
13 1.3 69
1 0.1 54
26 2.6 82
38 3.8 70
17 1.7 100
69 6.9 72
94 9.4 40
19 1.9 1
54 5.4 22
95 9.5 62
28 2.8 86
95 9.5 24
8 0.8 91
19 1.9 69
88 8.8 30
42 4.2 59
3 0.3 43
89 8.9 10
24 2.4 95
78 7.8 69
39 3.9 85
50 5.0 57
83 8.3 34
23 2.3 4
92 9.2 84
70 7.0 33
67 6.7 80
33 3.3 93
61 6.1 40
5 0.5 66
89 8.9 100
22 2.2 69
3 0.3 90
80 8.0 13
26 2.6 49
66 6.6 28
72 7.2 43
42 4.2 91
61 6.1 78
13 1.3 29
14 1.4 25
13 1.3 9
45 4.5 72
65 6.5 80
99 9.9 53
27 2.7 94
13 1.3 95
50 5.0 42
64 6.4 21
48 4.8 33
60 6.0 73
11 1.1 64
59 5.9 31
56 5.6 82
8 0.8 48
24 2.4 79
27 2.7 32
83 8.3 100
88 8.8 64
75 7.5 5
5 0.5 18
3 0.3 57
40 4.0 62
73 7.3 74
14 1.4 49
70 7.0 92
58 5.8 33
32 3.2 68
86 8.6 57
10 1.0 41
16 1.6 53
44 4.4 83
40 4.0 69
74 7.4 36
98 9.8 38
80 8.0 60
36 3.6 97
36 3.6 18

59730
576

[3.692535890158304 0.3103692512313769 4.161612150301187 1.4436763613646744 4.484484779640029 0.9638343319251562 2.401614165602571 2.0091596294312875 4.302990597566159 2.1769843950069543 4.2805973849359855 0.8011179077517291 4.448223934627063 1.4099367204799746 2.813346548510583 2.982439960226548 1.8735318561302203 4.081215369840682 4.366825153733505 0.9774279985594935 1.7000420117714568 4.3963389534743005 4.349870039966778 4.615554258933481 3.5622713381403712 3.7199646351116256 0.8262918642166319 4.573530899075191 0.431880249870891 3.4019482054780896 0.8443284813793633 4.5993438131130295 3.914527421343929 1.9697201457415332 4.531194059990003 0.4799974830460549 1.50109892720013 2.4268391430627796 0.6031473697725344 3.366435488289357 2.8384427051619348 3.445686648492162 3.822884558192591 2.260952381654238 0.5266877756812033 4.1883528373484 4.2215076451382485 0.6446231368531024 3.2202407565276525 4.286162721504287 4.392451928967 4.159288991247188 3.671665471923726 1.320240663381498 1.6088401445049803 0.4462053926523861 4.041923759200116 3.2063426949247966 2.3521728725491373 3.8683336794141785 0.20402745232608055 4.236408784523938 3.233680564622196 0.9659238699705287 2.78062608519831 0.07829083015067351 2.596156228019027 3.8712930177335254 3.949623932352966 0.32755209871831653 0.9991643503921563 3.3442431807164947 1.713976655951885 4.453054706895027 2.15331985828863 4.253654632593888 2.534792290122583 3.777085374905739 3.355526739224913 1.8563325671371997 4.204134304021728 0.8308299170961787 4.740699686033831 1.3642828331881083 0.8720027141700128 2.500602137178137 2.8079388917856307 2.702720925303765 1.1309453217748404 1.8297111165073163 4.498859548156938 1.1932568061908346 1.338100538400622 0.2277761632008886 2.1900772345395634 1.1464944866535567 1.3409892150376295 2.972549252528763 0.48824820683206194 2.9574557925744105 4.190086899189093 0.9874691264883843 1.015420964150158 2.3519917252756666 1.9097828258128415 4.210885261588687 3.530847599116516 4.2062946199842015 2.056980554680141 3.996072073695092 0.753886133852995 4.560648254638769 1.1216966278565872 3.2762695164252453 3.904028935303663 1.7975631098395122 1.3155750517184521 1.4190898597678017 4.439772330477027 0.2812276354599918]

[68 72 2 3 88 46 5 68 97 14 44 7 80 84 33 93 1 96 77 38 49 12 44 95 33 24 54 20 10 91 70 20 64 85 76 97 16 93 36 59 19 6 58 42 23 31 42 6 3 72 39 60 5 4 9 76 53 51 68 70 5 11 92 35 92 76 81 11 48 74 98 78 86 79 52 29 55 67 65 67 50 46 23 6 50 58 72 68 82 31 89 41 21 64 16 61 97 33 12 4 69 84 46 64 81 2 19 3 11 69 83 79 25 33 93 99 87 69 37 69]
